angle	Normangle	Sxx	Syy	Szz	Sxy	Szx	Syz	Srr	Stt	Srt	S13D   S23D	S33D	S12D	S22D	Smises3D	Smises2D	Saverage3D	Saverage2D	I13D	I23D	I33D	I12D	I22D
0.000000	0.000000	327.341000	216.561000	217.561000	-0.003757	0.000000	0.000000	327.341000	216.561000	-0.003757	327.341000	217.561000	217.561000	327.341000	216.561000	110.283401	288.377362	253.821000	271.951000	761.463000	189221.157309	15422745.754349	543.902000	70889.294287
1.799998	0.010000	326.049000	213.331000	215.752000	-10.122100	0.000000	0.000000	325.302217	214.077783	-13.640934	326.950753	215.752000	215.752000	326.950753	212.429247	112.896808	287.348356	251.710667	269.690000	755.132000	185826.216071	14984818.331314	539.380000	69453.902311
3.600000	0.020000	325.150000	208.652000	213.521000	-21.260200	0.000000	0.000000	322.026080	211.775920	-28.393092	328.908597	213.521000	213.521000	328.908597	204.893403	119.934360	287.699444	249.107667	266.901000	747.323000	181369.138538	14389436.777323	533.802000	67391.201696
5.400000	0.030000	320.969000	200.184000	208.461000	-30.316100	0.000000	0.000000	314.218612	206.934388	-41.095545	328.151051	208.461000	208.461000	328.151051	193.001949	128.120979	285.655513	243.204667	260.576500	729.614000	171973.867910	13202625.692658	521.153000	63333.792377
7.200000	0.040000	315.819000	188.996000	201.926000	-38.597800	0.000000	0.000000	304.227929	200.587071	-53.154978	326.642320	201.926000	201.926000	326.642320	178.172680	138.133296	283.270139	235.580333	252.407500	706.741000	160134.011249	11751838.280371	504.815000	58198.737559
8.999982	0.050000	307.483000	173.691000	192.469000	-45.548900	0.000000	0.000000	290.133533	191.040467	-63.991548	321.517693	192.469000	192.469000	321.517693	159.656307	148.204835	278.444673	224.547667	240.587000	673.643000	143943.406068	9879881.734243	481.174000	51332.327462
10.799982	0.060000	299.092000	158.376000	182.988000	-51.512100	0.000000	0.000000	275.188392	182.279608	-73.795217	315.933453	182.988000	182.988000	315.933453	141.534547	157.809792	274.099392	213.485333	228.734000	640.456000	128426.652530	8182399.574665	457.468000	44715.498146
12.599982	0.070000	286.701000	138.469000	170.068000	-55.737200	0.000000	0.000000	255.915468	169.254532	-81.989557	305.320198	170.068000	170.068000	305.320198	119.849802	166.153983	266.442926	198.412667	212.585000	595.238000	108900.376865	6223224.396318	425.170000	36592.565305
14.399982	0.080000	277.490000	121.705000	159.678000	-58.655900	0.000000	0.000000	239.597579	159.597421	-88.925530	297.105224	159.678000	159.678000	297.105224	102.089776	173.542027	261.462101	186.291000	199.597500	558.873000	94074.065055	4843258.222548	399.195000	30331.405845
16.199982	0.090000	266.026000	102.504000	147.412000	-60.121000	0.000000	0.000000	221.083712	147.446288	-94.571551	285.750939	147.412000	147.412000	285.750939	82.779061	179.600476	254.660122	171.980667	184.265000	515.942000	77979.938823	3486912.114180	368.530000	23654.194463
17.999982	0.100000	254.958000	84.926800	135.954000	-60.034100	0.000000	0.000000	203.434368	136.450432	-98.539502	274.018072	135.954000	135.954000	274.018072	65.866728	183.440583	247.741106	158.612933	169.942400	475.838800	64257.372011	2453789.412976	339.884800	18048.673912
19.800000	0.110000	243.378000	67.410400	124.315000	-58.716500	0.000000	0.000000	185.759577	125.028823	-101.324826	261.171213	124.315000	124.315000	261.171213	49.617187	185.828539	240.236731	145.034467	155.394200	435.103400	51594.240905	1610945.991912	310.788400	12958.580959
21.600000	0.120000	231.899000	51.150900	113.220000	-56.465800	0.000000	0.000000	168.751297	114.298603	-103.027091	248.088806	113.220000	113.220000	248.088806	34.961094	186.731724	232.587355	132.089967	141.524950	396.269900	40720.365667	982008.687127	283.049900	8673.455989
23.400000	0.130000	220.255000	35.703500	102.383000	-53.222600	0.000000	0.000000	152.348742	103.609758	-103.699504	234.503703	102.383000	102.383000	234.503703	21.454797	186.272772	224.546356	119.447167	127.979250	358.341500	31237.028347	515112.343457	255.958500	5031.229242
25.200000	0.140000	209.020000	22.023100	92.417100	-49.555600	0.000000	0.000000	136.936459	94.106641	-103.629722	221.340819	92.417100	92.417100	221.340819	9.702281	184.734860	216.652675	107.820067	115.521550	323.460200	23499.844148	198466.726883	231.043100	2147.510871
27.000000	0.150000	197.494000	9.087820	82.632700	-45.015600	0.000000	0.000000	122.243712	84.338108	-102.671407	207.696975	82.632700	82.632700	207.696975	-1.115155	182.012749	208.256792	96.404840	103.290910	289.214520	16838.799237	-19138.916643	206.581820	-231.614320
28.800000	0.160000	186.551000	-1.851210	73.880000	-40.355300	0.000000	0.000000	108.752264	75.947526	-101.160075	194.831105	73.880000	73.880000	194.831105	-10.131315	178.461011	200.089226	86.193263	92.349895	258.579790	11671.725170	-145831.385857	184.699790	-1973.895315
30.600000	0.170000	175.487000	-11.837000	65.459800	-35.301600	0.000000	0.000000	96.011985	67.638015	-99.083312	181.918822	65.459800	65.459800	181.918822	-18.268822	174.138277	191.707199	76.369933	81.825000	229.109800	7389.053688	-217551.886700	163.650000	-3323.442582
32.400000	0.180000	164.753000	-20.228700	57.809500	-30.175800	0.000000	0.000000	84.338958	60.185342	-96.536454	169.551082	57.809500	57.809500	169.551082	-25.026782	169.128022	183.350012	67.444600	72.262150	202.333800	4111.559604	-245304.087108	144.524300	-4243.317917
34.200000	0.190000	154.445000	-27.107600	50.935000	-25.066700	0.000000	0.000000	73.779257	53.558143	-93.629337	157.842349	50.935000	50.935000	157.842349	-30.504949	163.609827	175.099205	59.424133	63.668700	178.272400	1670.957738	-245250.636048	127.337400	-4814.972731
36.000000	0.200000	143.897000	-33.106600	44.316200	-19.906300	0.000000	0.000000	63.811744	46.978656	-90.321599	146.108095	44.316200	44.316200	146.108095	-35.317695	157.509468	166.598668	51.702200	55.395200	155.106600	-250.391675	-228680.508415	110.790400	-5160.201200
37.800000	0.210000	134.516000	-36.956400	39.024000	-15.074900	0.000000	0.000000	55.500232	42.059368	-86.791615	135.831214	39.024000	39.024000	135.831214	-38.271614	151.092758	158.471810	45.527867	48.779800	136.583600	-1391.313882	-202865.472297	97.559600	-5198.479712
39.600000	0.220000	124.216000	-40.718400	33.399200	-10.232800	0.000000	0.000000	47.150063	36.347537	-82.923915	124.848435	33.399200	33.399200	124.848435	-41.350835	144.174768	149.865307	38.965600	41.748800	116.896800	-2373.833928	-172426.274736	83.497600	-5162.586970
41.400000	0.230000	115.296000	-42.265700	29.212300	-5.856190	0.000000	0.000000	40.578996	32.451304	-78.893615	115.513361	29.212300	29.212300	115.513361	-42.483061	137.023660	141.617471	34.080867	36.515150	102.242600	-2773.978076	-143355.304910	73.030300	-4907.361109
43.200000	0.240000	106.053000	-43.449900	25.041200	-1.685060	0.000000	0.000000	34.313497	28.289603	-74.709751	106.071990	25.041200	25.041200	106.071990	-43.468890	129.657426	133.235292	29.214767	31.301550	87.644300	-3043.174924	-115460.758062	62.603100	-4610.831672
45.000000	0.250000	97.683600	-43.171600	21.804800	2.075150	0.000000	0.000000	29.331150	25.180850	-70.427600	97.714166	21.804800	21.804800	97.714166	-43.202166	122.158810	125.043788	25.438933	27.256000	76.316800	-3032.840296	-92048.168487	54.512000	-4221.463553
46.800000	0.260000	89.903900	-41.979400	19.169800	5.443330	0.000000	0.000000	25.254328	22.670172	-66.153319	90.128186	19.169800	19.169800	90.128186	-42.203686	114.702924	117.081094	22.364767	23.962250	67.094300	-2885.038541	-72916.966129	47.924500	-3803.741621
48.600000	0.270000	82.378900	-40.246300	16.853000	8.478190	0.000000	0.000000	21.793131	20.339469	-61.891731	82.962298	16.853000	16.853000	82.962298	-40.829698	107.289775	109.257187	19.661867	21.066300	58.985600	-2677.264921	-57086.598821	42.132600	-3387.325629
50.400000	0.280000	76.232200	-37.158900	15.629300	11.033500	0.000000	0.000000	19.751030	19.322270	-57.758788	77.295836	15.629300	15.629300	77.295836	-38.222536	100.118120	101.931601	18.234200	19.536650	54.702600	-2343.754491	-46175.873148	39.073300	-2954.442819
52.200000	0.290000	69.779300	-34.476100	14.121300	13.332300	0.000000	0.000000	17.601409	17.701791	-53.805621	71.457244	14.121300	14.121300	71.457244	-36.154044	93.260951	94.851046	16.474833	17.651600	49.424500	-2084.941270	-36481.931583	35.303200	-2583.468348
54.000000	0.300000	64.845500	-30.544600	13.720300	15.180200	0.000000	0.000000	16.849097	17.451803	-50.051628	67.202985	13.720300	13.720300	67.202985	-32.902085	86.761367	88.373677	16.007067	17.150450	48.021200	-1740.499693	-30337.206841	34.300900	-2211.118331
55.800000	0.310000	59.904300	-27.074800	13.131800	16.787800	0.000000	0.000000	16.014081	16.815419	-46.615562	63.032034	13.131800	13.131800	63.032034	-30.202534	80.810218	82.395131	15.320433	16.414750	45.961300	-1472.616742	-24999.364457	32.829500	-1903.727170
57.600000	0.320000	55.882400	-23.131400	13.100400	18.078600	0.000000	0.000000	15.912286	16.838714	-43.444405	59.822375	13.100400	13.100400	59.822375	-27.071375	75.323430	77.013309	15.283800	16.375500	45.851400	-1190.422725	-21215.756211	32.751000	-1619.473925
59.400000	0.330000	52.282400	-19.317400	13.186000	19.170800	0.000000	0.000000	16.035267	16.929733	-40.607295	57.092258	13.186000	13.186000	57.092258	-24.127258	70.415369	72.243547	15.383667	16.482500	46.151000	-942.803116	-18163.446090	32.965000	-1377.479606
61.200000	0.340000	48.900500	-15.819600	13.232400	20.004300	0.000000	0.000000	16.091257	16.989643	-38.041334	54.584436	13.232400	13.232400	54.584436	-21.503536	65.977100	67.938362	15.437767	16.540450	46.313300	-736.018667	-15531.640233	33.080900	-1173.758368
63.000000	0.350000	46.085300	-12.135700	13.579900	20.680800	0.000000	0.000000	16.595196	17.354404	-35.706758	52.683576	13.579900	13.579900	52.683576	-18.733976	61.942517	64.136526	15.843167	16.974800	47.529500	-525.940691	-13402.992794	33.949600	-986.972864
64.800000	0.360000	42.891300	-9.383110	13.403300	21.033200	0.000000	0.000000	16.299973	17.208217	-33.546129	50.303297	13.403300	13.403300	50.303297	-16.795107	58.205453	60.476001	15.637163	16.754095	46.911490	-395.728965	-11323.768464	33.508190	-844.849288
66.600000	0.370000	40.092500	-6.454400	13.455200	21.228500	0.000000	0.000000	16.362188	17.275912	-31.497523	48.319886	13.455200	13.455200	48.319886	-14.681786	54.664646	57.094558	15.697767	16.819050	47.093300	-256.814881	-9545.418181	33.638100	-709.422244
68.399820	0.379999	36.935200	-4.340000	13.038100	21.055100	0.000000	0.000000	15.666830	16.928370	-29.475921	45.780269	13.038100	13.038100	45.780269	-13.185069	51.169401	53.603126	15.211100	16.297600	45.633300	-178.636527	-7870.005822	32.595200	-603.616004
70.199820	0.389999	33.801800	-2.372040	12.571900	20.642300	0.000000	0.000000	14.936738	16.493022	-27.434207	43.160120	12.571900	12.571900	43.160120	-11.730360	47.640340	50.066767	14.667220	15.714880	44.001660	-111.151971	-6364.948940	31.429760	-506.283771
71.999820	0.399999	30.620900	-0.741671	11.951700	19.914600	0.000000	0.000000	13.958855	15.920374	-25.328484	40.287080	11.951700	11.951700	40.287080	-10.407851	44.004655	46.375361	13.943643	14.939615	41.830929	-62.194345	-5011.370837	29.879229	-419.301927
73.799820	0.409999	27.329100	0.486087	11.126100	18.861300	0.000000	0.000000	12.681976	15.133211	-23.116733	37.056794	11.126100	11.126100	37.056794	-9.241607	40.191954	42.439104	12.980429	13.907594	38.941287	-32.989765	-3810.292242	27.815187	-342.464317
75.599820	0.419999	24.336500	1.787570	10.449600	17.539300	0.000000	0.000000	11.631899	14.492171	-20.801330	33.912469	10.449600	10.449600	33.912469	-7.788399	36.208378	38.403627	12.191223	13.062035	36.573670	8.862235	-2759.988554	26.124070	-264.123847
77.399820	0.429999	21.191200	2.495350	9.474620	15.880000	0.000000	0.000000	10.146510	13.540040	-18.348817	30.270377	9.474620	9.474620	30.270377	-6.583827	32.004450	34.043171	11.053723	11.843275	33.161170	25.126121	-1888.243816	23.686550	-199.294939
79.199820	0.439999	18.604400	3.435130	8.815800	14.011200	0.000000	0.000000	9.125716	12.913814	-15.819387	26.952135	8.815800	8.815800	26.952135	-4.912605	27.683546	29.714583	10.285110	11.019765	30.855330	61.890896	-1167.257699	22.039530	-132.405193
80.999820	0.449999	16.120000	3.939680	8.023890	11.926700	0.000000	0.000000	7.923390	12.136290	-13.224942	23.421487	8.023890	8.023890	23.421487	-3.361807	23.281591	25.270662	9.361190	10.029840	28.083570	82.218134	-631.789314	20.059680	-78.738531
82.799820	0.459999	14.129400	4.486300	7.446270	9.696890	0.000000	0.000000	7.049363	11.566337	-10.591329	20.137302	7.446270	7.446270	20.137302	-1.521602	18.849311	20.939607	8.687323	9.307850	26.061970	107.976580	-228.160775	18.615700	-30.640948
84.599820	0.469999	12.514100	4.841530	6.942240	7.320410	0.000000	0.000000	6.281239	11.074391	-7.909609	16.942528	6.942240	6.942240	16.942528	0.413102	14.419732	16.739801	8.099290	8.677815	24.297870	127.485937	48.588654	17.355630	6.998988
86.399820	0.479999	11.184100	4.865640	6.419900	4.915630	0.000000	0.000000	5.506676	10.543064	-5.272841	13.868170	6.419900	6.419900	13.868170	2.181570	10.247360	12.916307	7.489880	8.024870	22.469640	133.292112	194.230133	16.049740	30.254386
88.199820	0.489999	10.633300	5.153400	6.314670	2.468670	0.000000	0.000000	5.313832	10.472868	-2.635858	11.581393	6.314670	6.314670	11.581393	4.205307	6.580061	10.154307	7.367123	7.893350	22.101370	148.391118	307.545373	15.786700	48.703317
89.999820	0.499999	120.323000	5.363460	25.137300	0.000118	0.000000	0.000000	5.363460	120.323000	-0.000479	120.323000	25.137300	25.137300	120.323000	5.363460	106.458955	117.732933	50.274587	62.843230	150.823760	3804.765849	16222.296164	125.686460	645.347598
91.799820	0.509999	10.631500	5.150520	6.312820	-2.467050	0.000000	0.000000	5.310819	10.471201	2.634242	11.578370	6.312820	6.312820	11.578370	4.203650	6.578795	10.151744	7.364947	7.891010	22.094840	148.300469	307.253899	15.782020	48.671418
93.599820	0.519999	11.177300	4.858130	6.414190	-4.909410	0.000000	0.000000	5.498323	10.537107	5.266683	13.855975	6.414190	6.414190	13.855975	2.179455	10.238513	12.905022	7.483207	8.017715	22.449620	133.052765	193.698724	16.035430	30.198470
95.399820	0.529999	12.510100	4.843550	6.941460	-7.311800	0.000000	0.000000	6.281493	11.072157	7.900557	16.932515	6.941460	6.941460	16.932515	0.421135	14.404192	16.725924	8.098370	8.676825	24.295110	127.590543	49.498688	17.353650	7.130876
97.199820	0.539999	14.123500	4.486620	7.444030	-9.688330	0.000000	0.000000	7.047323	11.562797	10.582236	20.125462	7.444030	7.444030	20.125462	-1.515342	18.833660	20.924327	8.684717	9.305060	26.054150	108.037331	-227.020290	18.610120	-30.496961
98.999820	0.549999	16.113800	3.941430	8.022080	-11.920400	0.000000	0.000000	7.922832	12.132398	13.217695	23.411844	8.022080	8.022080	23.411844	-3.356614	23.268754	25.257985	9.359103	10.027615	28.077310	82.300138	-630.411318	20.055230	-78.584521
100.799820	0.559999	18.599400	3.436020	8.814190	-14.007200	0.000000	0.000000	9.124728	12.910692	15.814560	26.945160	8.814190	8.814190	26.945160	-4.909740	27.675016	29.705908	10.283203	11.017710	30.849610	61.930637	-1166.062173	22.035420	-132.293741
102.599820	0.569999	21.191900	2.496780	9.475460	-15.879700	0.000000	0.000000	10.147547	13.541133	18.348369	30.270999	9.475460	9.475460	30.270999	-6.582319	32.003700	34.042821	11.054713	11.844340	33.164140	25.207780	-1888.017243	23.688680	-199.253360
104.399820	0.579999	24.332700	1.789800	10.449000	-17.538100	0.000000	0.000000	11.632917	14.489583	20.798808	33.909045	10.449000	10.449000	33.909045	-7.786545	36.203804	38.399061	12.190500	13.061250	36.571500	8.919717	-2758.894246	26.122500	-264.034285
106.199820	0.589999	27.322200	0.488440	11.124300	-18.858600	0.000000	0.000000	12.681872	15.128768	23.111959	37.049638	11.124300	11.124300	37.049638	-9.238998	40.183485	42.430370	12.978313	13.905320	38.934940	-32.927636	-3807.865006	27.810640	-342.301539
107.999820	0.599999	30.612800	-0.735755	11.950800	-19.913400	0.000000	0.000000	13.962409	15.914636	25.323382	40.280710	11.950800	11.950800	40.280710	-10.403665	43.995521	46.366355	13.942615	14.938523	41.827845	-62.012431	-5008.186145	29.877045	-419.067020
109.799820	0.609999	33.792700	-2.367910	12.569900	-20.640500	0.000000	0.000000	14.937858	16.486932	27.428594	43.151922	12.569900	12.569900	43.151922	-11.727132	47.630434	50.056592	14.664897	15.712395	43.994690	-111.041845	-6360.976683	31.424790	-506.048313
111.599820	0.619999	36.926500	-4.335660	13.036400	-21.054900	0.000000	0.000000	15.668896	16.921944	29.471304	45.773383	13.036400	13.036400	45.773383	-13.182543	51.161236	53.594697	15.209080	16.295420	45.627240	-178.542336	-7866.288427	32.590840	-603.409563
113.399820	0.629999	40.086200	-6.451570	13.453900	-21.227900	0.000000	0.000000	16.362942	17.271688	31.493782	48.314374	13.453900	13.453900	48.314374	-14.679744	54.658090	57.087795	15.696177	16.817315	47.088530	-256.725715	-9542.079874	33.634630	-709.242664
115.199820	0.639999	42.891700	-9.380580	13.404400	-21.034100	0.000000	0.000000	16.302599	17.208521	33.545879	50.304497	13.404400	13.404400	50.304497	-16.793377	58.205015	60.475965	15.638507	16.755560	46.915520	-395.585929	-11323.801015	33.511120	-844.782386
116.999820	0.649999	46.083500	-12.133600	13.580000	-20.682300	0.000000	0.000000	16.597481	17.352419	35.706060	52.683005	13.580000	13.580000	52.683005	-18.733105	61.941273	64.135361	15.843300	16.974950	47.529900	-525.876647	-13402.323203	33.949900	-986.916289
118.799820	0.659999	48.890200	-15.817300	13.229200	-20.005000	0.000000	0.000000	16.090985	16.981915	38.036387	54.575445	13.229200	13.229200	54.575445	-21.502545	65.968427	67.929005	15.434033	16.536450	46.302100	-735.982977	-15524.611529	33.072900	-1173.510985
120.599820	0.669999	52.274300	-19.303900	13.188100	-19.173700	0.000000	0.000000	16.045456	16.924944	40.599225	57.086807	13.188100	13.188100	57.086807	-24.116407	70.401294	72.230417	15.386167	16.485200	46.158500	-941.911699	-18156.434865	32.970400	-1376.728631
122.399820	0.679999	55.869500	-23.120400	13.099600	-18.081400	0.000000	0.000000	15.918685	16.830415	43.434782	59.811724	13.099600	13.099600	59.811724	-27.062624	75.306637	76.996689	15.282900	16.374550	45.848700	-1189.662103	-21203.827535	32.749100	-1618.662214
124.199820	0.689999	59.894400	-27.063600	13.132300	-16.792300	0.000000	0.000000	16.022505	16.808295	46.607407	63.024463	13.132300	13.132300	63.024463	-30.193663	80.795997	82.381307	15.321033	16.415400	45.963100	-1471.795508	-24989.971386	32.830800	-1902.939423
125.999820	0.699999	64.835600	-30.537700	13.719200	-15.183400	0.000000	0.000000	16.852922	17.444978	50.044626	67.194452	13.719200	13.719200	67.194452	-32.896552	86.749178	88.361435	16.005700	17.148950	48.017100	-1739.925988	-30325.821548	34.297900	-2210.465738
127.799820	0.709999	69.775500	-34.473200	14.120900	-13.333800	0.000000	0.000000	17.602907	17.699393	53.802749	71.453920	14.120900	14.120900	71.453920	-36.151620	93.255975	94.846072	16.474400	17.651150	49.423200	-2084.674741	-36476.755703	35.302300	-2583.174989
129.599820	0.719999	76.229700	-37.151800	15.631200	-11.035900	0.000000	0.000000	19.756224	19.321676	57.754524	77.293882	15.631200	15.631200	77.293882	-38.215982	100.110775	101.924812	18.236367	19.538950	54.709100	-2343.027187	-46172.402337	39.077900	-2953.861657
131.399820	0.729999	82.366700	-40.237100	16.851800	-8.484080	0.000000	0.000000	21.798426	20.331174	61.881858	82.951007	16.851800	16.851800	82.951007	-40.821407	107.272816	109.240256	19.660467	21.064800	58.981400	-2676.217165	-57063.173491	42.129600	-3386.176758
133.199820	0.739999	89.885300	-41.973800	19.164600	-5.452140	0.000000	0.000000	25.256965	22.654535	66.141804	90.110352	19.164600	19.164600	90.110352	-42.198852	114.683256	117.060549	22.358700	23.955750	67.076100	-2884.348703	-72874.415574	47.911500	-3802.553436
134.999820	0.749999	97.655500	-43.171100	21.793800	-2.084110	0.000000	0.000000	29.325868	25.158532	70.413313	97.686336	21.793800	21.793800	97.686336	-43.201936	122.134410	125.017065	25.426067	27.242200	76.278200	-3032.816754	-91975.041897	54.484400	-4220.238871
136.799820	0.759999	106.026000	-43.455800	25.028100	1.675060	0.000000	0.000000	34.305896	28.264304	74.698613	106.044768	25.028100	25.028100	106.044768	-43.474568	129.638628	133.213293	29.199433	31.285100	87.598300	-3044.237254	-115385.809958	62.570200	-4610.250477
138.599820	0.769999	115.273000	-42.269300	29.201600	5.851990	0.000000	0.000000	40.568152	32.435548	78.883490	115.490076	29.201600	29.201600	115.490076	-42.486376	137.006253	141.597333	34.068433	36.501850	102.205300	-2774.929960	-143285.091139	73.003700	-4906.754806
140.400000	0.780000	124.193000	-40.733500	33.383700	10.231500	0.000000	0.000000	47.131550	36.327950	82.919791	124.825305	33.383700	33.383700	124.825305	-41.365805	144.167507	149.853214	38.947733	41.729750	116.843200	-2377.312248	-172376.706833	83.459500	-5163.499158
142.200000	0.790000	134.505000	-36.949700	39.022300	15.078500	0.000000	0.000000	55.492394	42.062906	86.783938	135.820971	39.022300	39.022300	135.820971	-38.265671	151.078741	158.457812	45.525867	48.777650	136.577600	-1390.448378	-202809.841226	97.555300	-5197.280561
144.000000	0.800000	143.846000	-33.131900	44.285800	19.900100	0.000000	0.000000	63.775520	46.938580	90.307462	146.056048	44.285800	44.285800	146.056048	-35.341948	157.484911	166.563284	51.666633	55.357050	154.999900	-258.842778	-228599.104291	110.714100	-5161.905267
145.800000	0.810000	154.389000	-27.134200	50.902100	25.059200	0.000000	0.000000	73.739518	53.515282	93.612908	157.784883	50.902100	50.902100	157.784883	-30.530083	163.581258	175.058106	59.385633	63.627400	178.156900	1660.351047	-245204.858469	127.254800	-4817.185508
147.600000	0.820000	164.676000	-20.274200	57.760600	30.165100	0.000000	0.000000	84.280684	60.121116	96.517647	169.471540	57.760600	57.760600	169.471540	-25.069740	169.095400	183.296760	67.387467	72.200900	202.162400	4092.127192	-245402.113583	144.401800	-4248.607417
149.400000	0.830000	175.402000	-11.902400	65.399800	35.296300	0.000000	0.000000	95.936708	67.562892	99.072171	181.832583	65.399800	65.399800	181.832583	-18.332983	174.117812	191.657820	76.299800	81.749800	228.899400	7359.307582	-218012.428019	163.499600	-3333.533558
151.200000	0.840000	186.492000	-1.909280	73.833200	40.360600	0.000000	0.000000	108.689005	75.893715	101.162522	194.774230	73.833200	73.833200	194.774230	-10.191510	178.462656	200.064767	86.138640	92.291360	258.415920	11643.289404	-146562.112129	184.582720	-1985.043478
153.000000	0.850000	197.437000	9.009110	82.578500	45.033700	0.000000	0.000000	122.167594	84.278516	102.690827	207.646719	82.578500	82.578500	207.646719	-1.200609	182.041485	208.249619	96.341537	103.223055	289.024610	16798.707610	-20587.025226	206.446110	-249.302485
154.800000	0.860000	209.036000	21.980400	92.406400	49.570100	0.000000	0.000000	136.930645	94.085755	103.661579	221.360192	92.406400	92.406400	221.360192	9.656208	184.790762	216.693509	107.807600	115.508200	323.422800	23484.893945	197518.687429	231.016400	2137.500080
156.600000	0.870000	220.257000	35.637300	102.358000	53.247100	0.000000	0.000000	152.322125	103.572175	103.741133	234.513383	102.358000	102.358000	234.513383	21.380917	186.343475	224.587532	119.417433	127.947150	358.252300	31206.939887	513234.386808	255.894300	5014.111128
158.400000	0.880000	232.018000	51.127600	113.258000	56.488900	0.000000	0.000000	168.835200	114.310400	103.092636	248.209239	113.258000	113.258000	248.209239	34.936361	186.857480	232.716239	132.134533	141.572800	396.403600	40740.032038	982119.881255	283.145600	8671.527674
160.200000	0.890000	243.571000	67.437300	124.403000	58.748300	0.000000	0.000000	185.913248	125.095052	101.402266	261.367896	124.403000	124.403000	261.367896	49.640404	185.980322	240.422418	145.137100	155.504150	435.411300	51664.773390	1614055.259193	311.008300	12974.407845
162.000000	0.900000	254.918000	84.783000	135.880000	60.086400	0.000000	0.000000	203.353653	136.347347	98.612341	273.998736	135.880000	135.880000	273.998736	65.702264	183.560780	247.769565	158.527000	169.850500	475.581000	64160.909209	2446157.596270	339.701000	18002.337329
163.800000	0.910000	265.977000	102.431000	147.363000	60.200500	0.000000	0.000000	220.990186	147.417814	94.645128	285.746719	147.363000	147.363000	285.746719	82.661281	179.694269	254.683892	171.923667	184.204000	515.771000	77909.897991	3480742.042281	368.408000	23620.189887
165.600000	0.920000	277.351000	121.547000	159.559000	58.717100	0.000000	0.000000	239.427864	159.470136	88.983762	297.001137	159.559000	159.559000	297.001137	101.896863	173.610110	261.398473	186.152333	199.449000	558.457000	93911.250147	4828811.269818	398.898000	30263.484165
167.400000	0.930000	286.681000	138.481000	170.065000	55.798000	0.000000	0.000000	255.871052	169.290948	82.037785	305.339972	170.065000	170.065000	305.339972	119.822028	166.193534	266.464560	198.409000	212.581000	595.227000	108891.630287	6222075.428249	425.162000	36586.454757
169.200000	0.940000	298.658000	158.110000	182.707000	51.501700	0.000000	0.000000	274.764072	182.003928	73.754654	315.509543	182.707000	182.707000	315.509543	141.258457	157.667273	273.736793	213.158333	228.384000	639.475000	128023.102253	8142957.065067	456.768000	44568.391277
171.000000	0.950000	307.241000	173.579000	192.328000	45.593600	0.000000	0.000000	289.880861	190.939139	64.014005	321.312156	192.328000	192.328000	321.312156	159.507844	148.146399	278.266859	224.382667	240.410000	673.148000	143726.958138	9857157.955594	480.820000	51251.809178
172.800000	0.960000	315.854000	188.947000	201.921000	38.681700	0.000000	0.000000	304.240744	200.560256	53.246687	326.714836	201.921000	201.921000	326.714836	178.086164	138.260774	283.326444	235.574000	252.400500	706.722000	160113.314544	11748448.660314	504.801000	58183.391823
174.600000	0.970000	321.032000	200.178000	208.484000	30.410100	0.000000	0.000000	314.263387	206.946613	41.194344	328.252591	208.484000	208.484000	328.252591	192.957409	128.238794	285.733364	243.231333	260.605000	729.694000	172002.715154	13205120.023355	521.210000	63338.769514
176.400000	0.980000	325.272000	208.701000	213.589000	21.344700	0.000000	0.000000	322.137201	211.835799	28.481501	329.057393	213.589000	213.589000	329.057393	204.915607	120.040327	287.819698	249.187333	266.986500	747.562000	181479.754551	14402091.710005	533.973000	67428.995454
178.200000	0.990000	326.151000	213.584000	215.894000	10.143200	0.000000	0.000000	325.403041	214.331959	13.657255	327.057682	215.894000	215.894000	327.057682	212.677318	112.806424	287.472813	251.876333	269.867500	755.629000	186083.298768	15017101.024824	539.735000	69557.750678
180.000000	1.000000	327.439000	216.629000	217.627000	0.002937	0.000000	0.000000	327.439000	216.629000	0.002937	327.439000	217.627000	217.627000	327.439000	216.629000	110.314386	288.464277	253.898333	272.034000	761.695000	189336.669758	15436888.792573	544.068000	70932.783122
