angle    Normangle    Sxx    Syy    Szz    Sxy    Szx    Syz    Srr    Stt    Srt    S13D   S23D    S33D    S12D    S22D    Smises3D    Smises2D    Saverage3D    Saverage2D    I13D    I23D    I33D    I12D    I22D
0.000000    0.000000    326.866000    217.552000    217.767000    -0.003566    0.000000    0.000000    326.866000    217.552000    -0.003566    326.866000    217.767000    217.767000    326.866000    217.552000    109.206659    288.201150    254.061667    272.209000    762.185000    189666.626625    15485488.028184    544.418000    71110.352019
1.799998    0.010000    325.698000    214.668000    216.146000    -8.816190    0.000000    0.000000    325.034881    215.331119    -12.284606    326.393679    216.146000    216.146000    326.393679    213.972321    111.350432    287.189441    252.170667    270.183000    756.512000    186637.162494    15095466.545609    540.366000    69839.213058
3.600000    0.020000    324.928000    210.512000    214.176000    -18.574700    0.000000    0.000000    322.148871    213.291129    -25.598297    327.867940    214.176000    214.176000    327.867940    207.572060    117.133617    287.275691    249.872000    267.720000    749.616000    182734.621096    14576009.757728    535.440000    68056.223656
5.400000    0.030000    321.170000    202.950000    209.648000    -26.434800    0.000000    0.000000    315.169612    208.950388    -37.042677    326.811763    209.648000    209.648000    326.811763    197.308237    123.795759    285.050550    244.589333    262.060000    733.768000    174363.362609    13518659.204479    524.120000    64482.652849
7.200000    0.040000    316.659000    193.087000    203.898000    -33.558600    0.000000    0.000000    306.372195    203.373805    -47.869848    325.184375    203.898000    203.898000    325.184375    184.561625    132.020903    282.473564    237.881333    254.873000    713.644000    163952.746607    12237255.877821    509.746000    60016.556699
8.999982    0.050000    308.831000    179.301000    195.253000    -39.391000    0.000000    0.000000    293.488723    194.643277    -57.476522    319.869404    195.253000    195.253000    319.869404    168.262596    140.075613    277.140182    227.795000    244.066000    683.385000    149131.293646    10508917.948981    488.132000    53822.056250
10.799982    0.060000    301.091000    165.761000    186.741000    -44.293600    0.000000    0.000000    280.033806    186.818194    -66.092266    314.299205    186.741000    186.741000    314.299205    152.552795    147.651329    272.229909    217.864333    233.426000    653.593000    135127.631582    8953712.230195    466.852000    47947.222250
12.599982    0.070000    289.471000    147.873000    174.938000    -47.578400    0.000000    0.000000    262.474999    174.869001    -73.194944    303.972660    174.938000    174.938000    303.972660    133.371340    154.082025    263.905383    204.094000    218.672000    612.282000    117049.325708    7092203.624433    437.344000    40541.241036
14.399982    0.080000    281.121000    133.321000    165.777000    -49.750600    0.000000    0.000000    248.012579    166.429421    -79.198354    296.307094    165.777000    165.777000    296.307094    118.134906    159.770466    258.359322    193.406333    207.221000    580.219000    103709.162075    5802893.027373    414.442000    35004.210641
16.199982    0.090000    270.493000    116.398000    154.756000    -50.561200    0.000000    0.000000    231.406863    155.484137    -83.974324    285.601629    154.756000    154.756000    285.601629    101.289371    164.241085    250.797564    180.549000    193.445500    541.647000    88802.112865    4476844.904765    386.891000    28928.409269
17.999982    0.100000    260.362000    101.207000    144.628000    -50.002000    0.000000    0.000000    215.773666    145.795334    -87.226927    274.767363    144.628000    144.628000    274.767363    86.801637    166.750196    243.272216    168.732333    180.784500    506.197000    76143.258262    3449414.959272    361.569000    23850.256930
19.800000    0.110000    249.691000    86.061000    134.301000    -48.337000    0.000000    0.000000    200.104378    135.647622    -89.395142    262.903153    134.301000    134.301000    262.903153    72.848847    167.981428    235.101746    156.684333    167.876000    470.053000    64244.020934    2572158.481654    335.752000    19152.191582
21.600000    0.120000    239.256000    72.216500    124.589000    -45.872200    0.000000    0.000000    185.217846    126.254654    -90.612598    251.024273    124.589000    124.589000    251.024273    60.448227    167.957058    226.921135    145.353833    155.736250    436.061500    53980.019494    1890510.021324    311.472500    15173.972191
23.400000    0.130000    228.729000    59.179100    115.163000    -42.543500    0.000000    0.000000    170.973620    116.934480    -90.921309    238.805205    115.163000    115.163000    238.805205    49.102895    166.790735    218.433040    134.357033    143.954050    403.071100    44882.387492    1350404.444136    287.908100    11726.026972
25.200000    0.140000    218.634000    47.777200    106.564000    -38.893900    0.000000    0.000000    157.691447    108.719753    -90.615618    227.071179    106.564000    106.564000    227.071179    39.340021    164.748341    210.180810    124.325067    133.205600    372.975200    37322.828004    951934.601561    266.411200    8932.984888
27.000000    0.150000    208.425000    37.096500    98.208600    -34.528500    0.000000    0.000000    145.178790    100.342710    -89.599177    215.121895    98.208600    98.208600    215.121895    30.399605    161.847308    201.648072    114.576700    122.760750    343.730100    30651.943485    642246.993503    245.521500    6539.620700
28.800000    0.160000    198.801000    28.138900    90.775900    -30.128400    0.000000    0.000000    133.754364    93.185536    -88.190992    203.963644    90.775900    90.775900    203.963644    22.976256    158.374069    193.501306    105.905267    113.469950    317.715800    25286.994641    425405.003953    226.939900    4686.320972
30.600000    0.170000    189.261000    19.972500    83.693500    -25.460400    0.000000    0.000000    123.083310    86.150190    -86.439963    193.007253    83.693500    83.693500    193.007253    16.226247    154.519984    185.427364    97.642333    104.616750    292.927000    20643.267287    262109.910166    209.233500    3131.783354
32.400000    0.180000    180.157000    13.073500    77.292300    -20.808600    0.000000    0.000000    113.357413    79.873087    -84.450706    182.709511    77.292300    77.292300    182.709511    10.520989    150.366359    177.682785    90.174267    96.615250    270.522800    16857.514481    148577.806146    193.230500    1922.284706
34.200000    0.190000    171.496000    7.200250    71.478600    -16.219000    0.000000    0.000000    104.508730    74.187520    -82.349775    173.081806    71.478600    71.478600    173.081806    5.614444    146.127711    170.343991    83.391617    89.348125    250.174850    13744.715888    69459.909456    178.696250    971.758113
36.000000    0.200000    162.922000    1.923760    65.938300    -11.677600    0.000000    0.000000    96.192419    68.653341    -80.167789    163.764595    65.938300    65.938300    163.764595    1.081165    141.849094    163.226699    76.928020    82.422880    230.784060    11046.705662    11674.803622    164.845760    177.056485
37.800000    0.210000    155.119000    -2.141070    61.191300    -7.375650    0.000000    0.000000    88.899529    64.078401    -77.993977    155.464168    61.191300    61.191300    155.464168    -2.486238    137.641805    156.722078    71.389743    76.488965    214.169230    8974.397558    -23651.713304    152.977930    -386.520850
39.600000    0.220000    147.001000    -6.254230    56.298700    -3.176190    0.000000    0.000000    81.612037    59.134733    -75.865488    147.066798    56.298700    56.298700    147.066798    -6.320028    133.580446    150.326485    65.681823    70.373385    197.045470    6994.393933    -52327.741408    140.746770    -929.466247
41.400000    0.230000    139.615000    -9.312730    52.120800    0.753571    0.000000    0.000000    75.231561    55.070709    -73.782248    139.618813    52.120800    52.120800    139.618813    -9.316543    129.638323    144.502511    60.807690    65.151135    182.423070    5490.693886    -67796.895118    130.302270    -1300.764668
43.200000    0.240000    132.088000    -12.395600    47.877100    4.484410    0.000000    0.000000    68.857861    50.834539    -71.817669    132.227051    47.877100    47.877100    132.227051    -12.534651    125.937374    138.919151    55.856500    59.846200    167.569500    4073.105058    -79352.460489    119.692400    -1657.419946
45.000000    0.250000    124.878000    -14.973000    43.962100    7.985020    0.000000    0.000000    62.937520    46.967480    -69.925500    125.332441    43.962100    43.962100    125.332441    -15.427441    122.396067    133.715315    51.289033    54.952500    153.867100    2898.095762    -85003.307010    109.905000    -1933.558838
46.800000    0.260000    117.764000    -17.350800    40.165200    11.256000    0.000000    0.000000    57.198425    43.214775    -68.130861    118.695284    40.165200    40.165200    118.695284    -18.282084    119.050112    128.813051    46.859467    50.206600    140.578400    1863.119113    -87158.369417    100.413200    -2169.997147
48.600000    0.270000    110.520000    -19.703000    36.327000    14.281700    0.000000    0.000000    51.416950    39.400050    -66.388048    112.067891    36.327000    36.327000    112.067891    -21.250891    115.814061    124.065930    42.381333    45.408500    127.144000    917.566644    -86514.294938    90.817000    -2381.542515
50.400000    0.280000    103.560000    -21.622700    32.775100    17.103800    0.000000    0.000000    46.041045    35.896255    -64.687618    105.854836    32.775100    32.775100    105.854836    -23.917536    112.684451    119.620573    38.237467    40.968650    114.712400    153.716415    -82979.565104    81.937300    -2531.786786
52.200000    0.290000    96.094900    -23.855700    28.895700    19.597300    0.000000    0.000000    40.185964    32.053236    -62.964716    99.215486    28.895700    28.895700    99.215486    -26.976286    109.523774    115.099513    33.711633    36.119600    101.134900    -589.063022    -77338.337595    72.239200    -2676.465273
54.000000    0.300000    88.883400    -25.600200    25.313300    21.878700    0.000000    0.000000    34.760791    28.522409    -61.201077    92.922112    25.313300    25.313300    92.922112    -29.638912    106.329445    110.756916    29.532167    31.641600    88.596500    -1152.203704    -69715.621026    63.283200    -2754.110330
55.800000    0.310000    81.280900    -27.533900    21.498800    23.804200    0.000000    0.000000    28.977386    24.769614    -59.349632    86.260410    21.498800    21.498800    86.260410    -32.513410    103.001470    106.313688    25.081933    26.873500    75.245800    -1649.124107    -60295.966824    53.747000    -2804.620110
57.600000    0.320000    73.680800    -29.210800    17.788000    25.463700    0.000000    0.000000    23.370688    21.099312    -57.391468    79.637703    17.788000    17.788000    79.637703    -35.167703    99.523801    101.880353    20.752667    22.235000    62.258000    -2009.642770    -49818.409218    44.470000    -2800.675130
59.400000    0.330000    66.049800    -30.738000    14.124700    26.772600    0.000000    0.000000    17.802969    17.508831    -55.305696    72.961792    14.124700    14.124700    72.961792    -37.649992    95.857678    97.406138    16.478833    17.655900    49.436500    -2248.242282    -38800.704339    35.311800    -2747.010863
61.200000    0.340000    58.156500    -32.290600    10.346300    27.727200    0.000000    0.000000    12.111809    13.754091    -53.040483    65.979789    10.346300    10.346300    65.979789    -40.113889    91.916223    92.785573    12.070733    12.932950    36.212200    -2379.089538    -27383.613240    25.865900    -2646.705899
63.000000    0.350000    50.702100    -33.306100    6.958400    28.331900    0.000000    0.000000    6.929598    10.466402    -50.635104    59.363975    6.958400    6.958400    59.363975    -41.967975    87.773283    88.186043    8.118133    8.698000    24.354400    -2370.337444    -17336.058745    17.396000    -2491.385770
64.800000    0.360000    42.711100    -34.721900    3.195680    28.522900    0.000000    0.000000    1.293046    6.696154    -48.012757    52.083301    3.195680    3.195680    52.083301    -44.094101    83.295905    83.387807    3.728293    3.994600    11.184880    -2271.035441    -7339.091209    7.989200    -2296.566368
66.600000    0.370000    35.507200    -35.366200    0.056372    28.344900    0.000000    0.000000    -3.525048    3.666048    -45.235662    45.448833    0.056372    0.056372    45.448833    -45.307833    78.597579    78.597609    0.065791    0.070500    0.197372    -2059.180144    -116.080139    0.141000    -2059.188093
68.399820    0.379999    28.016200    -36.349000    -3.333100    27.769600    0.000000    0.000000    -8.616641    0.283841    -42.273701    38.340899    -3.333100    -3.333100    38.340899    -46.673699    73.629516    73.742594    -3.888633    -4.166400    -11.665900    -1761.737482    5964.620907    -8.332800    -1789.511538
70.199820    0.389999    21.095300    -36.970900    -6.350260    26.841000    0.000000    0.000000    -13.198844    -2.676756    -39.187773    31.601550    -6.350260    -6.350260    31.601550    -47.477150    68.502561    68.942652    -7.408620    -7.937800    -22.225860    -1399.537320    9527.622166    -15.875600    -1500.351508
71.999820    0.399999    14.706300    -37.362400    -9.062450    25.631600    0.000000    0.000000    -17.324179    -5.331921    -36.039045    25.206404    -9.062450    -9.062450    25.206404    -47.862504    63.320075    64.285485    -10.572850    -11.328050    -31.718550    -1001.121808    10933.316512    -22.656100    -1206.441582
73.799820    0.409999    8.614510    -37.576500    -11.584800    24.076100    0.000000    0.000000    -21.080350    -7.881640    -32.703355    18.881573    -11.584800    -11.584800    18.881573    -47.843563    57.858195    59.572494    -13.515597    -14.480995    -40.546790    -567.842864    10465.264926    -28.961990    -903.361726
75.599820    0.419999    3.510020    -37.321700    -13.524700    22.179700    0.000000    0.000000    -24.111059    -9.700621    -29.271680    13.239581    -13.524700    -13.524700    13.239581    -47.051261    52.322762    54.882117    -15.778793    -16.905840    -47.336380    -165.646177    8425.063168    -33.811680    -622.939006
77.399820    0.429999    -1.846740    -37.653900    -15.800200    20.010800    0.000000    0.000000    -27.429618    -12.071022    -25.729335    7.100570    -15.800200    -15.800200    7.100570    -46.601210    46.674558    50.527082    -18.433613    -19.750320    -55.300840    293.222859    5228.209602    -39.500640    -330.895153
79.199820    0.439999    -5.800810    -37.302300    -17.241200    17.561500    0.000000    0.000000    -29.731269    -13.371841    -22.126557    2.038533    -17.241200    -17.241200    2.038533    -45.141643    41.085958    46.194656    -20.114770    -21.551555    -60.344310    651.126613    1586.582247    -43.103110    -92.022727
80.999820    0.449999    -9.886150    -37.661500    -19.019100    15.023500    0.000000    0.000000    -32.339155    -15.208495    -18.579779    -3.314767    -19.019100    -19.019100    -3.314767    -44.232883    35.753694    42.672168    -22.188917    -23.773825    -66.566750    1050.935196    -2788.612508    -47.547650    146.621686
82.799820    0.459999    -12.657000    -37.218600    -19.950300    12.256400    0.000000    0.000000    -33.784640    -16.090960    -14.925509    -7.587371    -19.950300    -19.950300    -7.587371    -42.288229    30.462884    39.051326    -23.275300    -24.937800    -69.825900    1315.889662    -6401.183018    -49.875600    320.856479
84.599820    0.469999    -14.980400    -36.997700    -20.791200    9.327040    0.000000    0.000000    -35.054923    -16.923177    -11.224705    -11.560466    -20.791200    -20.791200    -11.560466    -40.417634    25.525865    36.055275    -24.256433    -25.989050    -72.769300    1547.933743    -9714.618964    -51.978100    467.246670
86.399820    0.479999    -16.814900    -36.964000    -21.511600    6.259990    0.000000    0.000000    -36.099927    -17.678973    -7.473362    -15.028420    -21.511600    -21.511600    -15.028420    -38.750480    21.236134    33.839247    -25.096833    -26.889450    -75.290500    1739.228674    -12527.462868    -53.778900    582.358489
88.199820    0.489999    -17.428700    -36.522500    -21.580500    3.123650    0.000000    0.000000    -36.307502    -17.643698    -3.717000    -16.930676    -21.580500    -21.580500    -16.930676    -37.020524    18.215613    32.099602    -25.177233    -26.975600    -75.531700    1791.076378    -13526.279880    -53.951200    626.782506
89.999820    0.499999    100.916000    -36.185800    12.946000    0.001730    0.000000    0.000000    -36.185800    100.916000    -0.002161    100.916000    12.946000    12.946000    100.916000    -36.185800    120.311176    123.065744    25.892067    32.365100    77.676200    -2813.729027    -47275.247331    64.730200    -3651.726196
91.799820    0.509999    -17.428400    -36.519100    -21.579000    -3.114990    0.000000    0.000000    -36.304696    -17.642804    3.708142    -16.932990    -21.579000    -21.579000    -16.932990    -37.014510    18.208623    32.094140    -25.175500    -26.973750    -75.526500    1790.899422    -13524.990414    -53.947500    626.766320
93.599820    0.519999    -16.816800    -36.960800    -21.511100    -6.249040    0.000000    0.000000    -36.098214    -17.679386    7.462063    -15.035712    -21.511100    -21.511100    -15.035712    -38.741888    21.222788    33.830380    -25.096233    -26.888800    -75.288700    1739.327212    -12530.471313    -53.777600    582.511881
95.399820    0.529999    -14.984200    -36.992100    -20.790500    -9.315140    0.000000    0.000000    -35.051777    -16.924523    11.212021    -11.570843    -20.790500    -20.790500    -11.570843    -40.405457    25.506701    36.041090    -24.255600    -25.988150    -72.766800    1548.138457    -9720.082496    -51.976300    467.525192
97.199820    0.539999    -12.666900    -37.216000    -19.953200    -12.243500    0.000000    0.000000    -33.785631    -16.097269    14.911349    -7.604557    -19.953200    -19.953200    -7.604557    -42.278343    30.439879    39.035619    -23.278700    -24.941450    -69.836100    1316.831538    -6415.114586    -49.882900    321.508058
98.999820    0.549999    -9.892130    -37.652800    -19.018000    -15.010700    0.000000    0.000000    -32.335003    -15.209927    18.565230    -3.327788    -19.018000    -19.018000    -3.327788    -44.217142    35.728971    42.650727    -22.187643    -23.772465    -66.562930    1051.354757    -2798.408897    -47.544930    147.145278
100.799820    0.559999    -5.816820    -37.297000    -17.245500    -17.552200    0.000000    0.000000    -29.730419    -13.383401    22.113885    2.019141    -17.245500    -17.245500    2.019141    -45.132961    41.061889    46.175652    -20.119773    -21.556910    -60.359320    652.389594    1571.578781    -43.113820    -91.129789
102.599820    0.569999    -1.847440    -37.643800    -15.796500    -20.000500    0.000000    0.000000    -27.424740    -12.066500    25.717620    7.093993    -15.796500    -15.796500    7.093993    -46.585233    46.655011    50.507267    -18.429247    -19.745620    -55.287740    293.348034    5220.353683    -39.491240    -330.475338
104.399820    0.579999    3.484460    -37.321200    -13.534700    -22.169200    0.000000    0.000000    -24.117596    -9.719144    29.256111    13.210502    -13.534700    -13.534700    13.210502    -47.047242    52.294320    54.858709    -15.790480    -16.918370    -47.371440    -163.547532    8412.055035    -33.836740    -621.517657
106.199820    0.589999    8.594390    -37.545400    -11.580400    -24.052900    0.000000    0.000000    -21.066079    -7.884931    32.669962    18.852592    -11.580400    -11.580400    18.852592    -47.803602    57.798510    59.513246    -13.510470    -14.475505    -40.531410    -565.957533    10436.509034    -28.951010    -901.221809
107.999820    0.599999    14.769300    -37.183800    -8.965800    -25.633300    0.000000    0.000000    -17.156071    -5.258429    36.006371    25.287232    -8.965800    -8.965800    25.287232    -47.701732    63.250026    64.196138    -10.460100    -11.207250    -31.380300    -1005.280842    10814.949325    -22.414500    -1206.244766
109.799820    0.609999    21.194600    -36.840500    -6.258370    -26.886200    0.000000    0.000000    -13.043694    -2.602206    39.212623    31.735689    -6.258370    -6.258370    31.735689    -47.381589    68.535435    68.962718    -7.301423    -7.822950    -21.904270    -1405.769581    9410.632187    -15.645900    -1503.687412
111.599820    0.619999    28.055900    -36.341200    -3.314120    -27.807300    0.000000    0.000000    -8.579242    0.293942    42.312046    38.401357    -3.314120    -3.314120    38.401357    -46.686657    73.693040    73.804737    -3.866473    -4.142650    -11.599420    -1765.372528    5941.657095    -8.285300    -1792.831006
113.399820    0.629999    35.502100    -35.377000    0.050058    -28.369000    0.000000    0.000000    -3.517665    3.642765    45.254214    45.458165    0.050058    0.050058    45.458165    -45.333065    78.627513    78.627537    0.058386    0.062550    0.175158    -2060.751690    -103.157216    0.125100    -2060.757953
115.199820    0.639999    42.720200    -34.723300    3.198770    -28.530200    0.000000    0.000000    1.298873    6.698027    48.021438    52.095708    3.198770    3.198770    52.095708    -44.098808    83.310733    83.402796    3.731890    3.998450    11.195670    -2271.778389    -7348.721874    7.996900    -2297.358633
116.999820    0.649999    50.690000    -33.315300    6.949890    -28.338300    0.000000    0.000000    6.924660    10.450040    50.637681    59.355702    6.949890    6.949890    59.355702    -41.981002    87.777357    88.189090    8.108197    8.687350    24.324590    -2371.059550    -17317.817938    17.374700    -2491.811804
118.799820    0.659999    58.136700    -32.296900    10.335900    -27.727500    0.000000    0.000000    12.102296    13.737504    53.034939    65.961141    10.335900    10.335900    65.961141    -40.121341    91.906457    92.774154    12.058567    12.919900    36.175700    -2379.371854    -27353.436793    25.839800    -2646.449442
120.599820    0.669999    66.025700    -30.738500    14.114900    -26.775200    0.000000    0.000000    17.798285    17.488915    55.296609    72.940426    14.114900    14.114900    72.940426    -37.653226    95.841893    97.388467    16.467367    17.643600    49.402100    -2248.367015    -38765.758625    35.287200    -2746.442314
122.399820    0.679999    73.652600    -29.213800    17.775500    -25.465400    0.000000    0.000000    23.361631    21.077169    57.380798    79.611565    17.775500    17.775500    79.611565    -35.172765    99.505428    101.859137    20.738100    22.219400    62.214300    -2010.237034    -49774.224936    44.438800    -2800.158923
124.199820    0.689999    81.256500    -27.537900    21.487400    -23.807900    0.000000    0.000000    28.970008    24.748592    59.341523    86.238349    21.487400    21.487400    86.238349    -32.519749    102.987726    106.296926    25.068667    26.859300    75.206000    -1650.176428    -60260.327622    53.718600    -2804.449474
125.999820    0.699999    88.863000    -25.603600    25.303800    -21.880700    0.000000    0.000000    34.753035    28.506365    61.193631    92.902987    25.303800    25.303800    92.902987    -29.643587    106.316810    110.741523    29.521067    31.629700    88.563200    -1153.274534    -69686.101919    63.259400    -2753.977739
127.799820    0.709999    96.084100    -23.857700    28.890500    -19.597400    0.000000    0.000000    40.180360    32.046040    62.960505    99.204934    28.890500    28.890500    99.204934    -26.978534    109.516520    115.090677    33.705633    36.113200    101.116900    -589.746910    -77322.641653    72.226400    -2676.403719
129.599820    0.719999    103.549000    -21.624600    32.770000    -17.105000    0.000000    0.000000    46.036220    35.888180    64.683405    105.844313    32.770000    32.770000    105.844313    -23.919913    112.677317    119.611736    38.231467    40.962200    114.694400    152.875858    -82966.651155    81.924400    -2531.786730
131.399820    0.729999    110.501000    -19.707300    36.317500    -14.286400    0.000000    0.000000    51.410467    39.383233    66.381383    112.050069    36.317500    36.317500    112.050069    -21.256369    115.803235    124.051718    42.370400    45.396850    127.111200    915.622617    -86500.207344    90.793700    -2381.777582
133.199820    0.739999    117.741000    -17.358400    40.153200    -11.264100    0.000000    0.000000    57.191264    43.191336    68.123729    118.673721    40.153200    40.153200    118.673721    -18.291121    119.039024    128.797098    46.845267    50.191300    140.535800    1860.007291    -87159.560388    100.382600    -2170.675323
134.999820    0.749999    124.851000    -14.981600    43.947900    -7.993400    0.000000    0.000000    62.927661    46.941739    69.916350    125.306452    43.947900    43.947900    125.306452    -15.437052    122.381617    133.695070    51.272433    54.934700    153.817300    2894.167219    -85011.155877    109.869400    -1934.362185
136.799820    0.759999    132.064000    -12.407600    47.862400    -4.493340    0.000000    0.000000    68.847946    50.808454    71.811177    132.203616    47.862400    47.862400    132.203616    -12.547216    125.927690    138.902902    55.839600    59.828200    167.518800    4068.255089    -79393.545611    119.656400    -1658.787391
138.599820    0.769999    139.594000    -9.319250    52.109800    -0.758648    0.000000    0.000000    75.221467    55.053283    73.774492    139.597865    52.109800    52.109800    139.597865    -9.323115    129.625659    144.485194    60.794850    65.137375    182.384550    5487.104236    -67820.223692    130.274750    -1301.486931
140.400000    0.780000    146.986000    -6.262570    56.289300    3.173770    0.000000    0.000000    81.602120    59.121310    75.861763    147.051700    56.289300    56.289300    147.051700    -6.328270    133.574303    150.315776    65.670910    70.361715    197.012730    6990.640438    -52381.861724    140.723430    -930.582930
142.200000    0.790000    155.110000    -2.139940    61.188200    7.377080    0.000000    0.000000    88.892949    64.077111    77.989427    155.455323    61.188200    61.188200    155.455323    -2.485263    137.633261    156.712735    71.386087    76.485030    214.158260    8973.615223    -23639.902148    152.970060    -386.347403
144.000000    0.800000    162.891000    1.908870    65.919900    11.670500    0.000000    0.000000    96.173737    68.626133    80.157935    163.732660    65.919900    65.919900    163.732660    1.067210    141.833099    163.201672    76.906590    82.399935    230.719770    11038.328123    11518.656965    164.799870    174.737173
145.800000    0.810000    171.459000    7.182590    71.456800    16.209700    0.000000    0.000000    104.486487    74.155103    82.337360    173.043188    71.456800    71.456800    173.043188    5.598402    146.107630    170.313011    83.366130    89.320795    250.098390    13733.921693    69224.870055    178.641590    968.765325
147.600000    0.820000    180.104000    13.046700    77.260300    20.797400    0.000000    0.000000    113.322069    79.828631    84.434084    182.654193    77.260300    77.260300    182.654193    10.496507    150.338860    177.638678    90.137000    96.575350    270.411000    16840.112037    148125.843005    193.150700    1917.231010
149.400000    0.830000    189.189000    19.922200    83.644600    25.452700    0.000000    0.000000    123.023680    86.087520    86.426746    192.933495    83.644600    83.644600    192.933495    16.177705    154.496689    185.374838    97.585267    104.555600    292.755800    20612.243838    261073.295315    209.111200    3121.221159
151.200000    0.840000    198.737000    28.109200    90.738500    30.126600    0.000000    0.000000    133.699844    93.146356    88.175548    203.900023    90.738500    90.738500    203.900023    22.946177    158.343967    193.450304    105.861567    113.423100    317.584700    25262.409972    424540.583946    226.846200    4678.726053
153.000000    0.850000    208.322000    37.014300    98.134500    34.537400    0.000000    0.000000    145.072876    100.263424    89.595995    215.022977    98.134500    98.134500    215.022977    30.313323    161.833686    201.583028    114.490267    122.668150    343.470800    30594.016138    639646.657778    245.336300    6518.061006
154.800000    0.860000    218.591000    47.761400    106.541000    38.909200    0.000000    0.000000    157.641589    108.710811    90.614892    227.035743    106.541000    106.541000    227.035743    39.316657    164.736989    210.154091    124.297800    133.176200    372.893400    37303.737391    951015.473244    266.352400    8926.286343
156.600000    0.870000    228.642000    59.080500    115.089000    42.560500    0.000000    0.000000    170.872398    116.850102    90.937174    238.725214    115.089000    115.089000    238.725214    48.997286    166.809345    218.388586    134.270500    143.861250    402.811500    44810.582323    1346183.087876    287.722500    11696.887521
158.400000    0.880000    239.261000    72.179400    124.576000    45.887600    0.000000    0.000000    185.206599    126.233801    90.638234    251.034087    124.576000    124.576000    251.034087    60.406313    168.000513    226.942706    145.338800    155.720200    436.016400    53962.042860    1889075.894223    311.440400    15164.043590
160.200000    0.890000    249.724000    86.023900    134.299000    48.330800    0.000000    0.000000    200.133286    135.614614    89.412707    262.928129    134.299000    134.299000    262.928129    72.819771    168.027284    235.133056    156.682300    167.873950    470.046900    64236.973397    2571337.830931    335.747900    19146.366175
162.000000    0.900000    260.674000    101.374000    144.819000    49.938900    0.000000    0.000000    216.108855    145.939145    87.218514    275.034724    144.819000    144.819000    275.034724    87.013276    166.807826    243.482519    168.955667    181.024000    506.867000    76363.101655    3465760.857011    362.048000    23931.672343
163.800000    0.910000    270.704000    116.669000    154.949000    50.588400    0.000000    0.000000    231.607906    155.765094    83.981239    285.832479    154.949000    154.949000    285.832479    101.540521    164.235314    250.972319    180.774000    193.686500    542.322000    89046.637738    4497174.505506    387.373000    29023.578761
165.600000    0.920000    280.604000    132.755000    165.344000    49.966700    0.000000    0.000000    247.388392    165.970608    79.399552    295.906754    165.344000    165.344000    295.906754    117.452246    159.978536    258.071549    192.901000    206.679500    578.703000    103101.343407    5746516.320375    413.359000    34754.912911
167.400000    0.930000    289.851000    148.126000    175.191000    48.116300    0.000000    0.000000    262.619883    175.357117    73.708715    304.642877    175.191000    175.191000    304.642877    133.334123    154.687549    264.510831    204.389333    218.988500    613.168000    117348.919507    7116134.192116    437.977000    40619.290900
169.200000    0.940000    298.920000    164.385000    185.322000    44.336900    0.000000    0.000000    277.874738    185.430262    65.986225    312.217240    185.322000    185.322000    312.217240    151.087760    147.032469    270.434673    216.209000    231.652500    648.627000    133032.812708    8742047.096729    463.305000    47172.203498
171.000000    0.950000    307.612000    178.956000    194.627000    39.376700    0.000000    0.000000    292.295494    194.272506    57.327912    318.706915    194.627000    194.627000    318.706915    167.861085    139.403558    276.139372    227.065000    243.284000    681.195000    148197.758705    10412250.334740    486.568000    53498.488569
172.800000    0.960000    315.838000    192.541000    203.352000    33.550900    0.000000    0.000000    305.557429    202.821571    47.828195    324.376397    203.352000    203.352000    324.376397    184.002603    131.768937    281.763914    237.243667    254.189500    711.731000    163065.987875    12137288.105556    508.379000    59686.101467
174.600000    0.970000    321.013000    202.903000    209.567000    26.438400    0.000000    0.000000    315.012911    208.903089    37.035907    326.661029    209.567000    209.567000    326.661029    197.254971    123.710399    284.923568    244.494333    261.958000    733.483000    174231.016116    13503556.889747    523.916000    64435.511744
176.400000    0.980000    324.975000    210.530000    214.202000    18.585900    0.000000    0.000000    322.194353    213.310647    25.611226    327.917691    214.202000    214.202000    327.917691    207.587309    117.163162    287.316814    249.902333    267.752500    749.707000    182777.793081    14581062.382551    535.505000    68071.551071
178.200000    0.990000    325.876000    214.952000    216.331000    8.821340    0.000000    0.000000    325.212662    215.615338    12.286421    326.573144    216.331000    216.331000    326.573144    214.254856    111.294741    287.376547    252.386333    270.414000    757.159000    186967.743981    15136654.524036    540.828000    69969.881913
180.000000    1.000000    326.951000    217.611000    217.825000    0.001276    0.000000    0.000000    326.951000    217.611000    0.001276    326.951000    217.825000    217.825000    326.951000    217.611000    109.233157    288.276551    254.129000    272.281000    762.387000    189767.351709    15497842.301483    544.562000    71148.134059
